p cnf 23 7
e 1 0
a 2 0
e 3 4 0
a 5 6 0
e 7 0
a 8 9 0
e 10 0
a 11 0
e 12 0
a 13 14 0
e 15 0
a 16 0
e 17 0
a 18 0
e 19 20 21 22 0
a 23 0
20 -8 0
-14 16 15 0
-1 11 10 17 20 0
-11 -8 17 -18 -23 0
-15 -2 13 7 0
-20 -17 15 12 0
9 -6 10 18 23 0
